problems/csplib-prob015/SchursLemma-models/noch/O2/lingeling/model_1_1-7-16-solution000001.eprime-solution
language ESSENCE' 1.0

letting boxes_PartitionAsSet_ExplicitR2_Occurrence be
        [[false, false, false, false, false, false, false, false, false, false, false, true, false, true, false,
          true; int(1..16)],
         [false, false, false, false, false, false, false, false, true, true, false, false, false, false, false,
          false; int(1..16)],
         [false, false, false, false, false, false, false, true, false, false, false, false, false, false, false,
          false; int(1..16)],
         [false, false, false, false, false, false, true, false, false, false, false, false, false, false, false,
          false; int(1..16)],
         [false, false, false, true, false, false, false, false, false, false, false, false, false, false, false,
          false; int(1..16)],
         [false, true, false, false, false, true, false, false, false, false, false, false, false, false, false,
          false; int(1..16)],
         [true, false, true, false, true, false, false, false, false, false, true, false, true, false, true,
          false; int(1..16)]; int(1..7)]
