problems/csplib-prob015/SchursLemma-models/noch/O2/lingeling/model_1_1-7-16-solution000001.solution
language Essence 1.3

letting boxes be partition({1, 3, 5, 11, 13, 15}, {2, 6}, {4}, {7}, {8}, {9, 10}, {12, 14, 16})
